\ Equation counts
\     Total        E        G        L        N        X        C        B
\	140	140	0	0
\
\ Variable counts
\                  x        b        i      s1s      s2s       sc       si
\     Total     cont   binary  integer     sos1     sos2    scont     sint
\	70	70

\ Nonzero counts
\     Total    const       NL      DLL
\
\
Minimize
 obj: [ + 2.5 x_1 * x_4 - 24.0 x_1 * x_5 + 19.0 x_1 * x_7 - 23.0 x_1 * x_10 + 17.5 x_1 * x_14 - 2.0 x_1 * x_18 - 19.0 x_1 * x_19 + 16.0 x_1 * x_22 - 12.5 x_1 * x_24 + 9.0 x_1 * x_27 + 10.0 x_1 * x_32 - 3.0 x_1 * x_33 + 22.5 x_1 * x_38 + 14.0 x_1 * x_49 - 21.0 x_1 * x_52 + 24.5 x_1 * x_57 + 3.0 x_1 * x_58 - 0.5 x_1 * x_59 + 8.0 x_1 * x_66 + 20.5 x_1 * x_68 + 20.5 x_2 * x_9 - 11.5 x_2 * x_13 + 20.5 x_2 * x_15 + 3.5 x_2 * x_16 + 20.5 x_2 * x_18 - 0.5 x_2 * x_22 - 1.5 x_2 * x_26 + 6.0 x_2 * x_27 - 0.5 x_2 * x_29 - 21.5 x_2 * x_33 - 11.5 x_2 * x_38 + 12.5 x_2 * x_45 - 9.0 x_2 * x_46 + 5.0 x_2 * x_52 - 23.0 x_2 * x_54 + 20.5 x_2 * x_55 - 10.5 x_2 * x_60 + 10.0 x_2 * x_65 - 2.5 x_2 * x_70 + 3.0 x_3 * x_8 + 24.0 x_3 * x_24 + 20.5 x_3 * x_36 + 1.5 x_3 * x_41 - 19.0 x_3 * x_43 + 4.5 x_3 * x_53 - 6.0 x_3 * x_62 - 8.5 x_3 * x_68 + 2.5 x_4 * x_1 - 11.0 x_4 * x_4 + 4.0 x_4 * x_5 + 8.0 x_4 * x_7 - 18.0 x_4 * x_9 + 0.5 x_4 * x_19 - 9.0 x_4 * x_20 - 16.0 x_4 * x_25 - 16.0 x_4 * x_26 - 18.0 x_4 * x_29 + 22.5 x_4 * x_31 + 16.0 x_4 * x_38 + 15.0 x_4 * x_52 + 16.5 x_4 * x_56 - 3.5 x_4 * x_67 + 20.5 x_4 * x_70 - 24.0 x_5 * x_1 + 4.0 x_5 * x_4 + 13.5 x_5 * x_18 - 12.5 x_5 * x_22 + 15.5 x_5 * x_26 - 17.0 x_5 * x_28 + 9.0 x_5 * x_30 - 8.0 x_5 * x_34 + 21.5 x_5 * x_35 - 14.0 x_5 * x_37 + 4.0 x_5 * x_38 - 0.5 x_5 * x_48 + 24.0 x_5 * x_52 + 7.0 x_5 * x_53 - 3.5 x_5 * x_54 - 0.5 x_5 * x_56 + 21.5 x_5 * x_64 - 2.5 x_5 * x_70 - 18.0 x_6 * x_6 - 20.5 x_6 * x_8 - 20.5 x_6 * x_9 + 12.5 x_6 * x_19 - 4.5 x_6 * x_23 - 7.0 x_6 * x_24 - 6.5 x_6 * x_27 + 10.5 x_6 * x_32 - 17.5 x_6 * x_33 + 4.0 x_6 * x_35 - 17.0 x_6 * x_40 + 8.0 x_6 * x_41 - 21.0 x_6 * x_43 - 4.0 x_6 * x_44 + 17.5 x_6 * x_50 - 12.5 x_6 * x_64 + 21.0 x_6 * x_65 - 2.5 x_6 * x_68 + 19.0 x_7 * x_1 + 8.0 x_7 * x_4 - 16.5 x_7 * x_8 + 15.5 x_7 * x_12 - 9.0 x_7 * x_14 + 12.5 x_7 * x_16 + 3.5 x_7 * x_18 + 23.5 x_7 * x_19 + 22.5 x_7 * x_20 + 6.5 x_7 * x_30 - 19.5 x_7 * x_32 - 9.5 x_7 * x_33 + 14.0 x_7 * x_45 + 19.0 x_7 * x_50 - 1.5 x_7 * x_51 + 22.5 x_7 * x_61 - 2.0 x_7 * x_69 + 3.0 x_8 * x_3 - 20.5 x_8 * x_6 - 16.5 x_8 * x_7 - 10.0 x_8 * x_8 - 21.5 x_8 * x_9 - 6.0 x_8 * x_16 + 3.5 x_8 * x_17 + 24.5 x_8 * x_18 + 20.5 x_8 * x_28 + 22.0 x_8 * x_30 + 9.0 x_8 * x_42 + 1.0 x_8 * x_45 - 19.5 x_8 * x_47 - 22.5 x_8 * x_52 - 20.5 x_8 * x_57 + 14.0 x_8 * x_60 - 21.0 x_8 * x_62 + 23.0 x_8 * x_70 + 20.5 x_9 * x_2 - 18.0 x_9 * x_4 - 20.5 x_9 * x_6 - 21.5 x_9 * x_8 + 3.0 x_9 * x_17 + 12.5 x_9 * x_27 + 18.0 x_9 * x_28 - 19.5 x_9 * x_29 - 23.5 x_9 * x_35 + 21.5 x_9 * x_37 - 12.5 x_9 * x_44 + 2.0 x_9 * x_45 + 2.5 x_9 * x_49 + 10.5 x_9 * x_53 - 5.0 x_9 * x_55 - 1.5 x_9 * x_56 + 18.5 x_9 * x_57 - 2.5 x_9 * x_65 + 14.5 x_9 * x_70 - 23.0 x_10 * x_1 + 8.5 x_10 * x_11 + 13.5 x_10 * x_13 - 17.5 x_10 * x_18 - 0.5 x_10 * x_27 - 22.5 x_10 * x_29 + 1.0 x_10 * x_37 - 17.5 x_10 * x_38 + 13.5 x_10 * x_42 + 4.0 x_10 * x_44 - 2.0 x_10 * x_45 + 7.5 x_10 * x_52 + 3.5 x_10 * x_55 + 24.5 x_10 * x_56 + 21.5 x_10 * x_60 - 21.5 x_10 * x_66 + 23.5 x_10 * x_68 + 8.5 x_11 * x_10 - 17.0 x_11 * x_13 + 21.5 x_11 * x_14 + 2.5 x_11 * x_18 + 9.0 x_11 * x_20 - 22.0 x_11 * x_26 - 4.5 x_11 * x_29 - 4.0 x_11 * x_31 - 12.5 x_11 * x_33 + 21.5 x_11 * x_48 - 8.5 x_11 * x_59 + 3.0 x_11 * x_63 + 24.5 x_11 * x_65 + 15.5 x_12 * x_7 - 17.0 x_12 * x_14 - 23.5 x_12 * x_15 + 4.5 x_12 * x_25 + 0.5 x_12 * x_30 + 12.5 x_12 * x_31 - 5.5 x_12 * x_32 + 18.5 x_12 * x_35 - 10.0 x_12 * x_43 + 15.5 x_12 * x_44 + 20.0 x_12 * x_48 + 12.0 x_12 * x_50 + 15.5 x_12 * x_57 - 12.5 x_12 * x_59 + 6.5 x_12 * x_63 - 0.5 x_12 * x_64 - 11.5 x_13 * x_2 + 13.5 x_13 * x_10 - 17.0 x_13 * x_11 + 9.5 x_13 * x_13 + 21.0 x_13 * x_17 + 11.5 x_13 * x_18 + 4.0 x_13 * x_19 - 1.5 x_13 * x_21 + 8.0 x_13 * x_22 - 10.0 x_13 * x_23 + 9.5 x_13 * x_24 + 8.0 x_13 * x_38 + 14.5 x_13 * x_47 + 11.0 x_13 * x_53 - 16.5 x_13 * x_60 + 0.5 x_13 * x_61 - 17.5 x_13 * x_64 + 17.5 x_14 * x_1 - 9.0 x_14 * x_7 + 21.5 x_14 * x_11 - 17.0 x_14 * x_12 - 9.5 x_14 * x_20 + 20.5 x_14 * x_22 + 7.0 x_14 * x_26 - 1.5 x_14 * x_31 - 13.0 x_14 * x_32 - 12.5 x_14 * x_33 - 9.5 x_14 * x_34 - 8.5 x_14 * x_41 + 24.5 x_14 * x_51 - 24.0 x_14 * x_53 + 13.5 x_14 * x_55 - 6.0 x_14 * x_62 + 10.0 x_14 * x_64 + 12.0 x_14 * x_67 + 20.5 x_15 * x_2 - 23.5 x_15 * x_12 - 1.0 x_15 * x_25 + 2.0 x_15 * x_28 + 7.5 x_15 * x_29 - 12.0 x_15 * x_33 - 4.5 x_15 * x_37 + 22.5 x_15 * x_42 - 11.0 x_15 * x_45 - 0.5 x_15 * x_47 - 23.5 x_15 * x_53 + 19.5 x_15 * x_64 + 23.0 x_15 * x_65 - 1.0 x_15 * x_67 + 3.5 x_16 * x_2 + 12.5 x_16 * x_7 - 6.0 x_16 * x_8 + 6.5 x_16 * x_19 + 1.0 x_16 * x_22 + 12.5 x_16 * x_27 - 7.0 x_16 * x_28 + 5.0 x_16 * x_29 + 23.5 x_16 * x_37 - 6.0 x_16 * x_38 + 20.0 x_16 * x_39 - 23.5 x_16 * x_42 - 12.0 x_16 * x_44 - 20.0 x_16 * x_45 - 16.5 x_16 * x_47 - 17.5 x_16 * x_49 - 12.5 x_16 * x_52 + 18.5 x_16 * x_53 - 17.0 x_16 * x_56 - 16.5 x_16 * x_57 - 17.5 x_16 * x_60 - 2.5 x_16 * x_61 - 20.0 x_16 * x_62 + 8.5 x_16 * x_68 + 3.5 x_17 * x_8 + 3.0 x_17 * x_9 + 21.0 x_17 * x_13 + 19.0 x_17 * x_18 + 12.0 x_17 * x_19 - 14.0 x_17 * x_24 + 12.0 x_17 * x_25 - 4.5 x_17 * x_33 - 2.5 x_17 * x_36 + 23.0 x_17 * x_37 + 17.5 x_17 * x_43 + 20.0 x_17 * x_52 + 21.5 x_17 * x_59 + 23.0 x_17 * x_62 + 19.5 x_17 * x_66 - 2.0 x_18 * x_1 + 20.5 x_18 * x_2 + 13.5 x_18 * x_5 + 3.5 x_18 * x_7 + 24.5 x_18 * x_8 - 17.5 x_18 * x_10 + 2.5 x_18 * x_11 + 11.5 x_18 * x_13 + 19.0 x_18 * x_17 + 21.5 x_18 * x_20 - 5.0 x_18 * x_23 - 23.5 x_18 * x_31 + 23.0 x_18 * x_32 + 4.5 x_18 * x_35 - 17.5 x_18 * x_39 + 20.5 x_18 * x_49 - 6.0 x_18 * x_50 - 14.5 x_18 * x_54 - 8.5 x_18 * x_55 + 3.5 x_18 * x_57 + 2.0 x_18 * x_61 - 17.5 x_18 * x_64 + 18.0 x_18 * x_68 - 19.0 x_19 * x_1 + 0.5 x_19 * x_4 + 12.5 x_19 * x_6 + 23.5 x_19 * x_7 + 4.0 x_19 * x_13 + 6.5 x_19 * x_16 + 12.0 x_19 * x_17 - 17.0 x_19 * x_19 + 24.5 x_19 * x_20 - 4.5 x_19 * x_25 + 3.5 x_19 * x_26 + 20.5 x_19 * x_30 + 7.0 x_19 * x_32 + 23.0 x_19 * x_35 + 15.0 x_19 * x_36 + 3.5 x_19 * x_38 - 2.0 x_19 * x_42 + 5.5 x_19 * x_43 + 3.5 x_19 * x_45 - 10.0 x_19 * x_48 + 11.5 x_19 * x_50 + 13.0 x_19 * x_51 - 9.0 x_20 * x_4 + 22.5 x_20 * x_7 + 9.0 x_20 * x_11 - 9.5 x_20 * x_14 + 21.5 x_20 * x_18 + 24.5 x_20 * x_19 - 6.0 x_20 * x_25 - 4.5 x_20 * x_26 - 7.0 x_20 * x_32 + 17.5 x_20 * x_39 - 23.0 x_20 * x_43 + 12.5 x_20 * x_45 - 4.5 x_20 * x_46 + 11.0 x_20 * x_48 - 0.5 x_20 * x_57 + 23.0 x_20 * x_61 - 13.5 x_20 * x_63 + 22.0 x_20 * x_66 - 1.5 x_21 * x_13 + 22.0 x_21 * x_23 - 7.5 x_21 * x_24 + 7.0 x_21 * x_26 + 19.5 x_21 * x_32 + 7.0 x_21 * x_39 - 14.0 x_21 * x_45 - 17.5 x_21 * x_47 + 20.5 x_21 * x_51 + 17.0 x_21 * x_65 + 24.0 x_21 * x_68 + 16.0 x_22 * x_1 - 0.5 x_22 * x_2 - 12.5 x_22 * x_5 + 8.0 x_22 * x_13 + 20.5 x_22 * x_14 + 1.0 x_22 * x_16 + 2.5 x_22 * x_22 - 13.0 x_22 * x_26 - 16.0 x_22 * x_28 - 4.0 x_22 * x_29 + 23.5 x_22 * x_46 - 13.5 x_22 * x_60 - 21.5 x_22 * x_65 + 19.5 x_22 * x_70 - 4.5 x_23 * x_6 - 10.0 x_23 * x_13 - 5.0 x_23 * x_18 + 22.0 x_23 * x_21 - 23.0 x_23 * x_23 - 18.5 x_23 * x_25 + 23.0 x_23 * x_43 - 4.0 x_23 * x_56 + 17.0 x_23 * x_58 + 6.0 x_23 * x_60 - 19.0 x_23 * x_64 - 12.5 x_24 * x_1 + 24.0 x_24 * x_3 - 7.0 x_24 * x_6 + 9.5 x_24 * x_13 - 14.0 x_24 * x_17 - 7.5 x_24 * x_21 - 17.0 x_24 * x_24 - 23.5 x_24 * x_26 + 22.5 x_24 * x_31 + 6.5 x_24 * x_41 + 11.5 x_24 * x_43 - 18.0 x_24 * x_49 + 16.0 x_24 * x_50 - 7.5 x_24 * x_55 + 0.5 x_24 * x_57 + 5.5 x_24 * x_63 - 16.0 x_25 * x_4 + 4.5 x_25 * x_12 - 1.0 x_25 * x_15 + 12.0 x_25 * x_17 - 4.5 x_25 * x_19 - 6.0 x_25 * x_20 - 18.5 x_25 * x_23 - 5.0 x_25 * x_29 - 8.0 x_25 * x_32 - 4.5 x_25 * x_35 - 14.5 x_25 * x_42 + 24.5 x_25 * x_47 + 5.0 x_25 * x_54 - 1.0 x_25 * x_57 - 23.0 x_25 * x_60 + 20.5 x_25 * x_64 + 2.5 x_25 * x_70 - 1.5 x_26 * x_2 - 16.0 x_26 * x_4 + 15.5 x_26 * x_5 - 22.0 x_26 * x_11 + 7.0 x_26 * x_14 + 3.5 x_26 * x_19 - 4.5 x_26 * x_20 + 7.0 x_26 * x_21 - 13.0 x_26 * x_22 - 23.5 x_26 * x_24 - 11.5 x_26 * x_28 - 18.5 x_26 * x_30 - 3.5 x_26 * x_43 + 13.5 x_26 * x_47 + 22.5 x_26 * x_48 - 14.0 x_26 * x_49 + 21.5 x_26 * x_54 + 10.0 x_26 * x_56 - 5.5 x_26 * x_58 - 5.5 x_26 * x_63 + 9.0 x_27 * x_1 + 6.0 x_27 * x_2 - 6.5 x_27 * x_6 + 12.5 x_27 * x_9 - 0.5 x_27 * x_10 + 12.5 x_27 * x_16 - 6.0 x_27 * x_30 - 13.0 x_27 * x_34 + 8.0 x_27 * x_35 + 20.0 x_27 * x_37 + 8.5 x_27 * x_38 + 4.5 x_27 * x_43 + 15.0 x_27 * x_45 - 4.5 x_27 * x_49 - 23.5 x_27 * x_50 - 22.5 x_27 * x_53 - 11.0 x_27 * x_62 - 17.0 x_28 * x_5 + 20.5 x_28 * x_8 + 18.0 x_28 * x_9 + 2.0 x_28 * x_15 - 7.0 x_28 * x_16 - 16.0 x_28 * x_22 - 11.5 x_28 * x_26 - 24.5 x_28 * x_31 + 7.0 x_28 * x_34 + 10.5 x_28 * x_39 + 14.0 x_28 * x_40 + 18.5 x_28 * x_41 - 10.5 x_28 * x_43 + 20.5 x_28 * x_49 + 19.5 x_28 * x_50 + 2.0 x_28 * x_54 + 4.0 x_28 * x_60 + 9.0 x_28 * x_63 + 16.0 x_28 * x_64 - 5.5 x_28 * x_70 - 0.5 x_29 * x_2 - 18.0 x_29 * x_4 - 19.5 x_29 * x_9 - 22.5 x_29 * x_10 - 4.5 x_29 * x_11 + 7.5 x_29 * x_15 + 5.0 x_29 * x_16 - 4.0 x_29 * x_22 - 5.0 x_29 * x_25 - 7.0 x_29 * x_30 + 11.5 x_29 * x_35 - 22.0 x_29 * x_37 - 10.5 x_29 * x_41 + 11.5 x_29 * x_43 + 10.5 x_29 * x_45 + 15.0 x_29 * x_46 - 12.0 x_29 * x_49 - 21.5 x_29 * x_54 + 12.0 x_29 * x_58 + 7.5 x_29 * x_64 - 1.5 x_29 * x_65 - 4.0 x_29 * x_67 - 16.5 x_29 * x_68 + 3.0 x_29 * x_69 + 8.0 x_29 * x_70 + 9.0 x_30 * x_5 + 6.5 x_30 * x_7 + 22.0 x_30 * x_8 + 0.5 x_30 * x_12 + 20.5 x_30 * x_19 - 18.5 x_30 * x_26 - 6.0 x_30 * x_27 - 7.0 x_30 * x_29 + 17.5 x_30 * x_40 + 1.0 x_30 * x_43 - 22.0 x_30 * x_46 + 9.5 x_30 * x_55 + 20.5 x_30 * x_57 + 17.0 x_30 * x_69 + 2.0 x_30 * x_70 + 22.5 x_31 * x_4 - 4.0 x_31 * x_11 + 12.5 x_31 * x_12 - 1.5 x_31 * x_14 - 23.5 x_31 * x_18 + 22.5 x_31 * x_24 - 24.5 x_31 * x_28 + 10.5 x_31 * x_33 + 15.0 x_31 * x_48 + 1.0 x_31 * x_57 + 6.0 x_31 * x_60 + 10.0 x_32 * x_1 + 10.5 x_32 * x_6 - 19.5 x_32 * x_7 - 5.5 x_32 * x_12 - 13.0 x_32 * x_14 + 23.0 x_32 * x_18 + 7.0 x_32 * x_19 - 7.0 x_32 * x_20 + 19.5 x_32 * x_21 - 8.0 x_32 * x_25 + 13.5 x_32 * x_37 - 12.5 x_32 * x_38 - 15.0 x_32 * x_46 - 15.0 x_32 * x_48 + 10.5 x_32 * x_49 - 18.5 x_32 * x_63 - 3.5 x_32 * x_65 - 3.0 x_33 * x_1 - 21.5 x_33 * x_2 - 17.5 x_33 * x_6 - 9.5 x_33 * x_7 - 12.5 x_33 * x_11 - 12.5 x_33 * x_14 - 12.0 x_33 * x_15 - 4.5 x_33 * x_17 + 10.5 x_33 * x_31 + 7.5 x_33 * x_40 - 1.0 x_33 * x_41 + 13.5 x_33 * x_43 + 6.0 x_33 * x_49 + 2.5 x_33 * x_54 + 21.5 x_33 * x_56 + 12.5 x_33 * x_60 + 19.0 x_33 * x_62 - 18.0 x_33 * x_63 + 20.5 x_33 * x_68 + 3.0 x_33 * x_70 - 8.0 x_34 * x_5 - 9.5 x_34 * x_14 - 13.0 x_34 * x_27 + 7.0 x_34 * x_28 - 5.5 x_34 * x_34 - 20.0 x_34 * x_36 - 14.5 x_34 * x_37 + 3.0 x_34 * x_38 + 8.5 x_34 * x_43 - 18.5 x_34 * x_54 - 4.0 x_34 * x_61 - 24.0 x_34 * x_62 + 15.5 x_34 * x_63 - 23.0 x_34 * x_65 + 21.5 x_35 * x_5 + 4.0 x_35 * x_6 - 23.5 x_35 * x_9 + 18.5 x_35 * x_12 + 4.5 x_35 * x_18 + 23.0 x_35 * x_19 - 4.5 x_35 * x_25 + 8.0 x_35 * x_27 + 11.5 x_35 * x_29 + 4.5 x_35 * x_36 - 13.0 x_35 * x_39 - 14.0 x_35 * x_52 - 13.5 x_35 * x_55 + 22.0 x_35 * x_57 + 2.5 x_35 * x_63 + 20.5 x_36 * x_3 - 2.5 x_36 * x_17 + 15.0 x_36 * x_19 - 20.0 x_36 * x_34 + 4.5 x_36 * x_35 + 18.5 x_36 * x_36 - 10.5 x_36 * x_49 - 24.0 x_36 * x_51 + 18.0 x_36 * x_52 - 18.5 x_36 * x_55 + 20.0 x_36 * x_60 + 13.5 x_36 * x_63 - 14.0 x_37 * x_5 + 21.5 x_37 * x_9 + 1.0 x_37 * x_10 - 4.5 x_37 * x_15 + 23.5 x_37 * x_16 + 23.0 x_37 * x_17 + 20.0 x_37 * x_27 - 22.0 x_37 * x_29 + 13.5 x_37 * x_32 - 14.5 x_37 * x_34 + 13.0 x_37 * x_40 - 10.0 x_37 * x_42 - 24.0 x_37 * x_43 - 14.0 x_37 * x_46 - 4.0 x_37 * x_48 - 7.5 x_37 * x_53 + 20.5 x_37 * x_62 + 19.5 x_37 * x_65 - 14.0 x_37 * x_69 + 22.5 x_38 * x_1 - 11.5 x_38 * x_2 + 16.0 x_38 * x_4 + 4.0 x_38 * x_5 - 17.5 x_38 * x_10 + 8.0 x_38 * x_13 - 6.0 x_38 * x_16 + 3.5 x_38 * x_19 + 8.5 x_38 * x_27 - 12.5 x_38 * x_32 + 3.0 x_38 * x_34 + 18.0 x_38 * x_46 - 5.5 x_38 * x_47 - 7.0 x_38 * x_51 - 18.0 x_38 * x_57 + 8.5 x_38 * x_58 + 20.0 x_39 * x_16 - 17.5 x_39 * x_18 + 17.5 x_39 * x_20 + 7.0 x_39 * x_21 + 10.5 x_39 * x_28 - 13.0 x_39 * x_35 + 6.5 x_39 * x_39 - 15.5 x_39 * x_42 + 15.5 x_39 * x_48 - 24.0 x_39 * x_49 - 19.5 x_39 * x_57 - 4.5 x_39 * x_62 - 17.0 x_39 * x_65 - 4.0 x_39 * x_69 - 17.0 x_40 * x_6 + 14.0 x_40 * x_28 + 17.5 x_40 * x_30 + 7.5 x_40 * x_33 + 13.0 x_40 * x_37 + 6.0 x_40 * x_51 - 23.5 x_40 * x_53 + 7.0 x_40 * x_55 - 7.5 x_40 * x_56 + 11.0 x_40 * x_58 + 14.5 x_40 * x_61 - 18.5 x_40 * x_62 - 15.0 x_40 * x_67 + 1.5 x_41 * x_3 + 8.0 x_41 * x_6 - 8.5 x_41 * x_14 + 6.5 x_41 * x_24 + 18.5 x_41 * x_28 - 10.5 x_41 * x_29 - 1.0 x_41 * x_33 + 14.5 x_41 * x_44 - 6.5 x_41 * x_48 - 4.0 x_41 * x_50 - 21.5 x_41 * x_53 - 6.0 x_41 * x_56 + 24.0 x_41 * x_58 + 6.0 x_41 * x_59 + 8.0 x_41 * x_63 - 18.0 x_41 * x_65 - 10.5 x_41 * x_67 + 9.0 x_42 * x_8 + 13.5 x_42 * x_10 + 22.5 x_42 * x_15 - 23.5 x_42 * x_16 - 2.0 x_42 * x_19 - 14.5 x_42 * x_25 - 10.0 x_42 * x_37 - 15.5 x_42 * x_39 - 19.5 x_42 * x_43 + 21.0 x_42 * x_49 + 4.0 x_42 * x_52 - 13.0 x_42 * x_53 - 5.5 x_42 * x_61 + 12.5 x_42 * x_62 - 6.5 x_42 * x_63 + 1.5 x_42 * x_66 - 1.5 x_42 * x_67 - 2.0 x_42 * x_69 - 19.0 x_43 * x_3 - 21.0 x_43 * x_6 - 10.0 x_43 * x_12 + 17.5 x_43 * x_17 + 5.5 x_43 * x_19 - 23.0 x_43 * x_20 + 23.0 x_43 * x_23 + 11.5 x_43 * x_24 - 3.5 x_43 * x_26 + 4.5 x_43 * x_27 - 10.5 x_43 * x_28 + 11.5 x_43 * x_29 + 1.0 x_43 * x_30 + 13.5 x_43 * x_33 + 8.5 x_43 * x_34 - 24.0 x_43 * x_37 - 19.5 x_43 * x_42 - 15.0 x_43 * x_45 + 11.5 x_43 * x_49 - 10.5 x_43 * x_69 - 0.5 x_43 * x_70 - 4.0 x_44 * x_6 - 12.5 x_44 * x_9 + 4.0 x_44 * x_10 + 15.5 x_44 * x_12 - 12.0 x_44 * x_16 + 14.5 x_44 * x_41 + 6.5 x_44 * x_46 - 14.5 x_44 * x_55 + 5.5 x_44 * x_58 + 6.0 x_44 * x_59 - 5.5 x_44 * x_61 + 2.5 x_44 * x_64 - 17.5 x_44 * x_67 + 18.0 x_44 * x_70 + 12.5 x_45 * x_2 + 14.0 x_45 * x_7 + 1.0 x_45 * x_8 + 2.0 x_45 * x_9 - 2.0 x_45 * x_10 - 11.0 x_45 * x_15 - 20.0 x_45 * x_16 + 3.5 x_45 * x_19 + 12.5 x_45 * x_20 - 14.0 x_45 * x_21 + 15.0 x_45 * x_27 + 10.5 x_45 * x_29 - 15.0 x_45 * x_43 + 1.0 x_45 * x_45 - 1.5 x_45 * x_47 - 15.5 x_45 * x_59 - 6.5 x_45 * x_65 - 4.0 x_45 * x_69 + 7.0 x_45 * x_70 - 9.0 x_46 * x_2 - 4.5 x_46 * x_20 + 23.5 x_46 * x_22 + 15.0 x_46 * x_29 - 22.0 x_46 * x_30 - 15.0 x_46 * x_32 - 14.0 x_46 * x_37 + 18.0 x_46 * x_38 + 6.5 x_46 * x_44 + 15.5 x_46 * x_51 - 18.5 x_46 * x_55 - 11.0 x_46 * x_58 - 18.0 x_46 * x_59 - 19.5 x_47 * x_8 + 14.5 x_47 * x_13 - 0.5 x_47 * x_15 - 16.5 x_47 * x_16 - 17.5 x_47 * x_21 + 24.5 x_47 * x_25 + 13.5 x_47 * x_26 - 5.5 x_47 * x_38 - 1.5 x_47 * x_45 + 9.0 x_47 * x_48 - 18.5 x_47 * x_56 - 4.5 x_47 * x_57 + 22.5 x_47 * x_58 - 0.5 x_48 * x_5 + 21.5 x_48 * x_11 + 20.0 x_48 * x_12 - 10.0 x_48 * x_19 + 11.0 x_48 * x_20 + 22.5 x_48 * x_26 + 15.0 x_48 * x_31 - 15.0 x_48 * x_32 - 4.0 x_48 * x_37 + 15.5 x_48 * x_39 - 6.5 x_48 * x_41 + 9.0 x_48 * x_47 - 21.0 x_48 * x_56 - 24.0 x_48 * x_62 + 2.5 x_48 * x_63 - 24.5 x_48 * x_65 - 1.5 x_48 * x_67 + 14.0 x_49 * x_1 + 2.5 x_49 * x_9 - 17.5 x_49 * x_16 + 20.5 x_49 * x_18 - 18.0 x_49 * x_24 - 14.0 x_49 * x_26 - 4.5 x_49 * x_27 + 20.5 x_49 * x_28 - 12.0 x_49 * x_29 + 10.5 x_49 * x_32 + 6.0 x_49 * x_33 - 10.5 x_49 * x_36 - 24.0 x_49 * x_39 + 21.0 x_49 * x_42 + 11.5 x_49 * x_43 + 11.5 x_49 * x_51 + 18.0 x_49 * x_63 + 5.5 x_49 * x_69 - 8.0 x_49 * x_70 + 17.5 x_50 * x_6 + 19.0 x_50 * x_7 + 12.0 x_50 * x_12 - 6.0 x_50 * x_18 + 11.5 x_50 * x_19 + 16.0 x_50 * x_24 - 23.5 x_50 * x_27 + 19.5 x_50 * x_28 - 4.0 x_50 * x_41 - 15.5 x_50 * x_51 + 7.5 x_50 * x_54 - 6.0 x_50 * x_57 - 22.5 x_50 * x_63 - 3.5 x_50 * x_65 + 22.0 x_50 * x_68 - 1.5 x_51 * x_7 + 24.5 x_51 * x_14 + 13.0 x_51 * x_19 + 20.5 x_51 * x_21 - 24.0 x_51 * x_36 - 7.0 x_51 * x_38 + 6.0 x_51 * x_40 + 15.5 x_51 * x_46 + 11.5 x_51 * x_49 - 15.5 x_51 * x_50 + 22.5 x_51 * x_52 - 5.0 x_51 * x_53 + 5.5 x_51 * x_57 - 22.5 x_51 * x_58 + 21.0 x_51 * x_61 - 24.5 x_51 * x_62 - 17.0 x_51 * x_63 - 8.0 x_51 * x_65 + 5.0 x_51 * x_67 - 11.5 x_51 * x_68 + 10.5 x_51 * x_69 - 21.0 x_52 * x_1 + 5.0 x_52 * x_2 + 15.0 x_52 * x_4 + 24.0 x_52 * x_5 - 22.5 x_52 * x_8 + 7.5 x_52 * x_10 - 12.5 x_52 * x_16 + 20.0 x_52 * x_17 - 14.0 x_52 * x_35 + 18.0 x_52 * x_36 + 4.0 x_52 * x_42 + 22.5 x_52 * x_51 + 4.5 x_52 * x_53 + 21.0 x_52 * x_55 + 7.5 x_52 * x_69 + 4.5 x_53 * x_3 + 7.0 x_53 * x_5 + 10.5 x_53 * x_9 + 11.0 x_53 * x_13 - 24.0 x_53 * x_14 - 23.5 x_53 * x_15 + 18.5 x_53 * x_16 - 22.5 x_53 * x_27 - 7.5 x_53 * x_37 - 23.5 x_53 * x_40 - 21.5 x_53 * x_41 - 13.0 x_53 * x_42 - 5.0 x_53 * x_51 + 4.5 x_53 * x_52 + 10.5 x_53 * x_53 - 18.5 x_53 * x_59 + 24.0 x_53 * x_60 + 5.5 x_53 * x_61 - 4.0 x_53 * x_62 - 9.5 x_53 * x_65 - 23.0 x_54 * x_2 - 3.5 x_54 * x_5 - 14.5 x_54 * x_18 + 5.0 x_54 * x_25 + 21.5 x_54 * x_26 + 2.0 x_54 * x_28 - 21.5 x_54 * x_29 + 2.5 x_54 * x_33 - 18.5 x_54 * x_34 + 7.5 x_54 * x_50 - 12.0 x_54 * x_58 + 14.5 x_54 * x_66 + 20.5 x_54 * x_67 - 24.5 x_54 * x_69 + 20.5 x_55 * x_2 - 5.0 x_55 * x_9 + 3.5 x_55 * x_10 + 13.5 x_55 * x_14 - 8.5 x_55 * x_18 - 7.5 x_55 * x_24 + 9.5 x_55 * x_30 - 13.5 x_55 * x_35 - 18.5 x_55 * x_36 + 7.0 x_55 * x_40 - 14.5 x_55 * x_44 - 18.5 x_55 * x_46 + 21.0 x_55 * x_52 - 8.0 x_55 * x_56 - 18.5 x_55 * x_58 + 1.5 x_55 * x_62 - 6.0 x_55 * x_64 - 5.0 x_55 * x_68 + 16.5 x_56 * x_4 - 0.5 x_56 * x_5 - 1.5 x_56 * x_9 + 24.5 x_56 * x_10 - 17.0 x_56 * x_16 - 4.0 x_56 * x_23 + 10.0 x_56 * x_26 + 21.5 x_56 * x_33 - 7.5 x_56 * x_40 - 6.0 x_56 * x_41 - 18.5 x_56 * x_47 - 21.0 x_56 * x_48 - 8.0 x_56 * x_55 + 11.0 x_56 * x_64 + 11.0 x_56 * x_66 + 24.5 x_57 * x_1 - 20.5 x_57 * x_8 + 18.5 x_57 * x_9 + 15.5 x_57 * x_12 - 16.5 x_57 * x_16 + 3.5 x_57 * x_18 - 0.5 x_57 * x_20 + 0.5 x_57 * x_24 - 1.0 x_57 * x_25 + 20.5 x_57 * x_30 + 1.0 x_57 * x_31 + 22.0 x_57 * x_35 - 18.0 x_57 * x_38 - 19.5 x_57 * x_39 - 4.5 x_57 * x_47 - 6.0 x_57 * x_50 + 5.5 x_57 * x_51 - 22.0 x_57 * x_65 + 3.0 x_58 * x_1 + 17.0 x_58 * x_23 - 5.5 x_58 * x_26 + 12.0 x_58 * x_29 + 8.5 x_58 * x_38 + 11.0 x_58 * x_40 + 24.0 x_58 * x_41 + 5.5 x_58 * x_44 - 11.0 x_58 * x_46 + 22.5 x_58 * x_47 - 22.5 x_58 * x_51 - 12.0 x_58 * x_54 - 18.5 x_58 * x_55 + 22.0 x_58 * x_59 + 8.0 x_58 * x_60 + 15.5 x_58 * x_64 - 0.5 x_59 * x_1 - 8.5 x_59 * x_11 - 12.5 x_59 * x_12 + 21.5 x_59 * x_17 + 6.0 x_59 * x_41 + 6.0 x_59 * x_44 - 15.5 x_59 * x_45 - 18.0 x_59 * x_46 - 18.5 x_59 * x_53 + 22.0 x_59 * x_58 - 0.5 x_59 * x_63 + 2.5 x_59 * x_64 - 13.5 x_59 * x_70 - 10.5 x_60 * x_2 + 14.0 x_60 * x_8 + 21.5 x_60 * x_10 - 16.5 x_60 * x_13 - 17.5 x_60 * x_16 - 13.5 x_60 * x_22 + 6.0 x_60 * x_23 - 23.0 x_60 * x_25 + 4.0 x_60 * x_28 + 6.0 x_60 * x_31 + 12.5 x_60 * x_33 + 20.0 x_60 * x_36 + 24.0 x_60 * x_53 + 8.0 x_60 * x_58 + 6.5 x_60 * x_66 + 22.5 x_61 * x_7 + 0.5 x_61 * x_13 - 2.5 x_61 * x_16 + 2.0 x_61 * x_18 + 23.0 x_61 * x_20 - 4.0 x_61 * x_34 + 14.5 x_61 * x_40 - 5.5 x_61 * x_42 - 5.5 x_61 * x_44 + 21.0 x_61 * x_51 + 5.5 x_61 * x_53 - 4.0 x_61 * x_63 + 19.0 x_61 * x_70 - 6.0 x_62 * x_3 - 21.0 x_62 * x_8 - 6.0 x_62 * x_14 - 20.0 x_62 * x_16 + 23.0 x_62 * x_17 - 11.0 x_62 * x_27 + 19.0 x_62 * x_33 - 24.0 x_62 * x_34 + 20.5 x_62 * x_37 - 4.5 x_62 * x_39 - 18.5 x_62 * x_40 + 12.5 x_62 * x_42 - 24.0 x_62 * x_48 - 24.5 x_62 * x_51 - 4.0 x_62 * x_53 + 1.5 x_62 * x_55 + 3.0 x_62 * x_66 + 7.5 x_62 * x_68 + 5.0 x_62 * x_69 + 3.0 x_63 * x_11 + 6.5 x_63 * x_12 - 13.5 x_63 * x_20 + 5.5 x_63 * x_24 - 5.5 x_63 * x_26 + 9.0 x_63 * x_28 - 18.5 x_63 * x_32 - 18.0 x_63 * x_33 + 15.5 x_63 * x_34 + 2.5 x_63 * x_35 + 13.5 x_63 * x_36 + 8.0 x_63 * x_41 - 6.5 x_63 * x_42 + 2.5 x_63 * x_48 + 18.0 x_63 * x_49 - 22.5 x_63 * x_50 - 17.0 x_63 * x_51 - 0.5 x_63 * x_59 - 4.0 x_63 * x_61 + 8.0 x_63 * x_63 - 6.0 x_63 * x_69 + 1.0 x_63 * x_70 + 21.5 x_64 * x_5 - 12.5 x_64 * x_6 - 0.5 x_64 * x_12 - 17.5 x_64 * x_13 + 10.0 x_64 * x_14 + 19.5 x_64 * x_15 - 17.5 x_64 * x_18 - 19.0 x_64 * x_23 + 20.5 x_64 * x_25 + 16.0 x_64 * x_28 + 7.5 x_64 * x_29 + 2.5 x_64 * x_44 - 6.0 x_64 * x_55 + 11.0 x_64 * x_56 + 15.5 x_64 * x_58 + 2.5 x_64 * x_59 + 10.5 x_64 * x_65 - 20.5 x_64 * x_68 + 10.0 x_65 * x_2 + 21.0 x_65 * x_6 - 2.5 x_65 * x_9 + 24.5 x_65 * x_11 + 23.0 x_65 * x_15 + 17.0 x_65 * x_21 - 21.5 x_65 * x_22 - 1.5 x_65 * x_29 - 3.5 x_65 * x_32 - 23.0 x_65 * x_34 + 19.5 x_65 * x_37 - 17.0 x_65 * x_39 - 18.0 x_65 * x_41 - 6.5 x_65 * x_45 - 24.5 x_65 * x_48 - 3.5 x_65 * x_50 - 8.0 x_65 * x_51 - 9.5 x_65 * x_53 - 22.0 x_65 * x_57 + 10.5 x_65 * x_64 - 15.5 x_65 * x_65 + 1.0 x_65 * x_67 + 16.5 x_65 * x_68 + 8.0 x_66 * x_1 - 21.5 x_66 * x_10 + 19.5 x_66 * x_17 + 22.0 x_66 * x_20 + 1.5 x_66 * x_42 + 14.5 x_66 * x_54 + 11.0 x_66 * x_56 + 6.5 x_66 * x_60 + 3.0 x_66 * x_62 + 0.5 x_66 * x_69 - 3.5 x_67 * x_4 + 12.0 x_67 * x_14 - 1.0 x_67 * x_15 - 4.0 x_67 * x_29 - 15.0 x_67 * x_40 - 10.5 x_67 * x_41 - 1.5 x_67 * x_42 - 17.5 x_67 * x_44 - 1.5 x_67 * x_48 + 5.0 x_67 * x_51 + 20.5 x_67 * x_54 + 1.0 x_67 * x_65 + 20.5 x_68 * x_1 - 8.5 x_68 * x_3 - 2.5 x_68 * x_6 + 23.5 x_68 * x_10 + 8.5 x_68 * x_16 + 18.0 x_68 * x_18 + 24.0 x_68 * x_21 - 16.5 x_68 * x_29 + 20.5 x_68 * x_33 + 22.0 x_68 * x_50 - 11.5 x_68 * x_51 - 5.0 x_68 * x_55 + 7.5 x_68 * x_62 - 20.5 x_68 * x_64 + 16.5 x_68 * x_65 - 22.0 x_68 * x_68 - 2.0 x_69 * x_7 + 3.0 x_69 * x_29 + 17.0 x_69 * x_30 - 14.0 x_69 * x_37 - 4.0 x_69 * x_39 - 2.0 x_69 * x_42 - 10.5 x_69 * x_43 - 4.0 x_69 * x_45 + 5.5 x_69 * x_49 + 10.5 x_69 * x_51 + 7.5 x_69 * x_52 - 24.5 x_69 * x_54 + 5.0 x_69 * x_62 - 6.0 x_69 * x_63 + 0.5 x_69 * x_66 - 2.5 x_70 * x_2 + 20.5 x_70 * x_4 - 2.5 x_70 * x_5 + 23.0 x_70 * x_8 + 14.5 x_70 * x_9 + 19.5 x_70 * x_22 + 2.5 x_70 * x_25 - 5.5 x_70 * x_28 + 8.0 x_70 * x_29 + 2.0 x_70 * x_30 + 3.0 x_70 * x_33 - 0.5 x_70 * x_43 + 18.0 x_70 * x_44 + 7.0 x_70 * x_45 - 8.0 x_70 * x_49 - 13.5 x_70 * x_59 + 19.0 x_70 * x_61 + 1.0 x_70 * x_63 + 4.0 x_70 * x_70 ] + 0.0 x_1 + 0.0 x_2 + 11.0 x_3 + 0.0 x_4 + 0.0 x_5 + 27.0 x_6 + 0.0 x_7 + 0.0 x_8 + 0.0 x_9 + 49.0 x_10 + 0.0 x_11 + 0.0 x_12 + 0.0 x_13 + 0.0 x_14 + 0.0 x_15 + 0.0 x_16 + 0.0 x_17 + 41.0 x_18 + 0.0 x_19 + 0.0 x_20 + 13.0 x_21 + 0.0 x_22 + 0.0 x_23 + 0.0 x_24 + 0.0 x_25 - 27.0 x_26 + 0.0 x_27 + 0.0 x_28 + 0.0 x_29 + 0.0 x_30 - 10.0 x_31 + 0.0 x_32 + 0.0 x_33 + 0.0 x_34 + 0.0 x_35 + 0.0 x_36 + 0.0 x_37 + 0.0 x_38 + 0.0 x_39 + 0.0 x_40 + 0.0 x_41 + 0.0 x_42 + 0.0 x_43 + 0.0 x_44 + 36.0 x_45 + 0.0 x_46 + 0.0 x_47 + 0.0 x_48 + 0.0 x_49 + 0.0 x_50 + 0.0 x_51 + 0.0 x_52 - 17.0 x_53 + 0.0 x_54 + 49.0 x_55 + 0.0 x_56 + 0.0 x_57 + 0.0 x_58 - 35.0 x_59 + 34.0 x_60 + 0.0 x_61 + 0.0 x_62 + 0.0 x_63 + 0.0 x_64 + 0.0 x_65 + 0.0 x_66 + 0.0 x_67 + 0.0 x_68 + 0.0 x_69 + 0.0 x_70

Subject To
 e2: [  x_1 * x_10 ] = 0.0
 e3: [  x_1 * x_59 ] = 0.0
 e4: [  x_2 * x_38 ] = 0.0
 e5: [  x_3 * x_43 ] = 0.0
 e6: [  x_5 * x_22 ] = 0.0
 e7: [  x_6 * x_24 ] = 0.0
 e8: [  x_6 * x_27 ] = 0.0
 e9: [  x_6 * x_32 ] = 0.0
 e10: [  x_6 * x_41 ] = 0.0
 e11: [  x_6 * x_65 ] = 0.0
 e12: [  x_7 * x_4 ] = 0.0
 e13: [  x_7 * x_12 ] = 0.0
 e14: [  x_7 * x_20 ] = 0.0
 e15: [  x_7 * x_33 ] = 0.0
 e16: [  x_8 * x_28 ] = 0.0
 e17: [  x_9 * x_8 ] = 0.0
 e18: [  x_9 * x_56 ] = 0.0
 e19: [  x_10 * x_1 ] = 0.0
 e20: [  x_10 * x_18 ] = 0.0
 e21: [  x_10 * x_55 ] = 0.0
 e22: [  x_10 * x_56 ] = 0.0
 e23: [  x_11 * x_26 ] = 0.0
 e24: [  x_11 * x_59 ] = 0.0
 e25: [  x_11 * x_63 ] = 0.0
 e26: [  x_12 * x_31 ] = 0.0
 e27: [  x_12 * x_48 ] = 0.0
 e28: [  x_13 * x_13 ] = 0.0
 e29: [  x_14 * x_26 ] = 0.0
 e30: [  x_14 * x_33 ] = 0.0
 e31: [  x_14 * x_51 ] = 0.0
 e32: [  x_16 * x_7 ] = 0.0
 e33: [  x_16 * x_37 ] = 0.0
 e34: [  x_16 * x_38 ] = 0.0
 e35: [  x_17 * x_9 ] = 0.0
 e36: [  x_17 * x_37 ] = 0.0
 e37: [  x_17 * x_59 ] = 0.0
 e38: [  x_19 * x_1 ] = 0.0
 e39: [  x_19 * x_6 ] = 0.0
 e40: [  x_19 * x_7 ] = 0.0
 e41: [  x_20 * x_18 ] = 0.0
 e42: [  x_20 * x_48 ] = 0.0
 e43: [  x_21 * x_13 ] = 0.0
 e44: [  x_21 * x_23 ] = 0.0
 e45: [  x_23 * x_25 ] = 0.0
 e46: [  x_25 * x_32 ] = 0.0
 e47: [  x_25 * x_57 ] = 0.0
 e48: [  x_25 * x_60 ] = 0.0
 e49: [  x_25 * x_70 ] = 0.0
 e50: [  x_26 * x_22 ] = 0.0
 e51: [  x_26 * x_54 ] = 0.0
 e52: [  x_27 * x_9 ] = 0.0
 e53: [  x_27 * x_10 ] = 0.0
 e54: [  x_28 * x_8 ] = 0.0
 e55: [  x_28 * x_15 ] = 0.0
 e56: [  x_28 * x_34 ] = 0.0
 e57: [  x_28 * x_39 ] = 0.0
 e58: [  x_28 * x_54 ] = 0.0
 e59: [  x_29 * x_35 ] = 0.0
 e60: [  x_29 * x_54 ] = 0.0
 e61: [  x_30 * x_5 ] = 0.0
 e62: [  x_30 * x_7 ] = 0.0
 e63: [  x_30 * x_19 ] = 0.0
 e64: [  x_30 * x_69 ] = 0.0
 e65: [  x_31 * x_12 ] = 0.0
 e66: [  x_31 * x_24 ] = 0.0
 e67: [  x_32 * x_19 ] = 0.0
 e68: [  x_33 * x_2 ] = 0.0
 e69: [  x_33 * x_11 ] = 0.0
 e70: [  x_33 * x_70 ] = 0.0
 e71: [  x_34 * x_34 ] = 0.0
 e72: [  x_34 * x_37 ] = 0.0
 e73: [  x_35 * x_27 ] = 0.0
 e74: [  x_36 * x_52 ] = 0.0
 e75: [  x_36 * x_60 ] = 0.0
 e76: [  x_36 * x_63 ] = 0.0
 e77: [  x_37 * x_17 ] = 0.0
 e78: [  x_40 * x_55 ] = 0.0
 e79: [  x_40 * x_67 ] = 0.0
 e80: [  x_41 * x_28 ] = 0.0
 e81: [  x_41 * x_44 ] = 0.0
 e82: [  x_41 * x_50 ] = 0.0
 e83: [  x_41 * x_67 ] = 0.0
 e84: [  x_42 * x_15 ] = 0.0
 e85: [  x_42 * x_37 ] = 0.0
 e86: [  x_42 * x_49 ] = 0.0
 e87: [  x_42 * x_53 ] = 0.0
 e88: [  x_43 * x_12 ] = 0.0
 e89: [  x_44 * x_58 ] = 0.0
 e90: [  x_47 * x_57 ] = 0.0
 e91: [  x_48 * x_19 ] = 0.0
 e92: [  x_48 * x_20 ] = 0.0
 e93: [  x_48 * x_31 ] = 0.0
 e94: [  x_48 * x_32 ] = 0.0
 e95: [  x_48 * x_39 ] = 0.0
 e96: [  x_48 * x_47 ] = 0.0
 e97: [  x_49 * x_32 ] = 0.0
 e98: [  x_49 * x_36 ] = 0.0
 e99: [  x_49 * x_39 ] = 0.0
 e100: [  x_50 * x_18 ] = 0.0
 e101: [  x_50 * x_27 ] = 0.0
 e102: [  x_50 * x_68 ] = 0.0
 e103: [  x_51 * x_38 ] = 0.0
 e104: [  x_52 * x_16 ] = 0.0
 e105: [  x_53 * x_9 ] = 0.0
 e106: [  x_53 * x_27 ] = 0.0
 e107: [  x_53 * x_40 ] = 0.0
 e108: [  x_53 * x_42 ] = 0.0
 e109: [  x_53 * x_62 ] = 0.0
 e110: [  x_54 * x_34 ] = 0.0
 e111: [  x_54 * x_67 ] = 0.0
 e112: [  x_55 * x_35 ] = 0.0
 e113: [  x_56 * x_23 ] = 0.0
 e114: [  x_57 * x_1 ] = 0.0
 e115: [  x_58 * x_29 ] = 0.0
 e116: [  x_58 * x_51 ] = 0.0
 e117: [  x_59 * x_45 ] = 0.0
 e118: [  x_59 * x_64 ] = 0.0
 e119: [  x_60 * x_23 ] = 0.0
 e120: [  x_62 * x_14 ] = 0.0
 e121: [  x_62 * x_17 ] = 0.0
 e122: [  x_62 * x_42 ] = 0.0
 e123: [  x_62 * x_51 ] = 0.0
 e124: [  x_62 * x_53 ] = 0.0
 e125: [  x_63 * x_26 ] = 0.0
 e126: [  x_63 * x_34 ] = 0.0
 e127: [  x_63 * x_42 ] = 0.0
 e128: [  x_63 * x_51 ] = 0.0
 e129: [  x_63 * x_63 ] = 0.0
 e130: [  x_63 * x_69 ] = 0.0
 e131: [  x_64 * x_25 ] = 0.0
 e132: [  x_65 * x_2 ] = 0.0
 e133: [  x_65 * x_21 ] = 0.0
 e134: [  x_65 * x_37 ] = 0.0
 e135: [  x_65 * x_53 ] = 0.0
 e136: [  x_66 * x_69 ] = 0.0
 e137: [  x_67 * x_15 ] = 0.0
 e138: [  x_68 * x_1 ] = 0.0
 e139: [  x_68 * x_64 ] = 0.0
 e140: [  x_68 * x_68 ] = 0.0
 e141: [  x_70 * x_43 ] = 0.0

Bounds
 x_1 <= 1.0
 x_2 <= 1.0
 x_3 <= 1.0
 x_4 <= 1.0
 x_5 <= 1.0
 x_6 <= 1.0
 x_7 <= 1.0
 x_8 <= 1.0
 x_9 <= 1.0
 x_10 <= 1.0
 x_11 <= 1.0
 x_12 <= 1.0
 x_13 <= 1.0
 x_14 <= 1.0
 x_15 <= 1.0
 x_16 <= 1.0
 x_17 <= 1.0
 x_18 <= 1.0
 x_19 <= 1.0
 x_20 <= 1.0
 x_21 <= 1.0
 x_22 <= 1.0
 x_23 <= 1.0
 x_24 <= 1.0
 x_25 <= 1.0
 x_26 <= 1.0
 x_27 <= 1.0
 x_28 <= 1.0
 x_29 <= 1.0
 x_30 <= 1.0
 x_31 <= 1.0
 x_32 <= 1.0
 x_33 <= 1.0
 x_34 <= 1.0
 x_35 <= 1.0
 x_36 <= 1.0
 x_37 <= 1.0
 x_38 <= 1.0
 x_39 <= 1.0
 x_40 <= 1.0
 x_41 <= 1.0
 x_42 <= 1.0
 x_43 <= 1.0
 x_44 <= 1.0
 x_45 <= 1.0
 x_46 <= 1.0
 x_47 <= 1.0
 x_48 <= 1.0
 x_49 <= 1.0
 x_50 <= 1.0
 x_51 <= 1.0
 x_52 <= 1.0
 x_53 <= 1.0
 x_54 <= 1.0
 x_55 <= 1.0
 x_56 <= 1.0
 x_57 <= 1.0
 x_58 <= 1.0
 x_59 <= 1.0
 x_60 <= 1.0
 x_61 <= 1.0
 x_62 <= 1.0
 x_63 <= 1.0
 x_64 <= 1.0
 x_65 <= 1.0
 x_66 <= 1.0
 x_67 <= 1.0
 x_68 <= 1.0
 x_69 <= 1.0
 x_70 <= 1.0

End